% seed = 5098806

mint = 48;
% maxt = 118;

nActs = 22;
dur = [0,5,6,4,8,10,7,5,10,6,4,8,8,6,7,4,4,3,10,1,2,0];

nSkills = 4;
sreq = [| 0,0,0,0,
	| 2,1,2,1,
	| 2,2,2,2,
	| 2,1,2,3,
	| 2,1,2,2,
	| 2,2,2,1,
	| 1,1,2,1,
	| 2,3,2,3,
	| 1,3,2,1,
	| 2,3,1,3,
	| 3,3,3,2,
	| 2,2,3,1,
	| 2,2,2,1,
	| 3,3,2,3,
	| 3,3,2,3,
	| 3,2,2,3,
	| 2,3,1,2,
	| 2,2,1,1,
	| 1,2,3,2,
	| 1,1,1,3,
	| 2,2,1,2,
	| 0,0,0,0, |];

nResources = 20;
mastery = [| false,true,false,false,
	| false,true,true,false,
	| true,true,false,false,
	| false,true,true,true,
	| true,true,false,false,
	| true,false,false,true,
	| true,true,true,false,
	| true,false,true,true,
	| true,true,true,false,
	| false,false,false,true,
	| true,true,false,true,
	| true,false,false,false,
	| false,false,false,true,
	| true,false,false,true,
	| true,false,true,false,
	| false,false,false,true,
	| false,true,true,true,
	| true,true,false,false,
	| false,true,true,true,
	| true,true,true,false, |];

nPrecs = 43;
pred = [1,1,1,2,2,2,3,3,3,4,4,4,5,5,5,6,6,6,7,7,8,8,8,9,9,9,10,11,11,11,12,12,12,13,14,15,16,16,17,18,19,20,21];
succ = [2,3,4,11,5,6,18,6,7,9,5,8,20,13,16,9,10,12,10,12,10,14,15,17,19,15,20,17,18,21,13,15,16,14,19,21,17,21,20,19,22,22,22];

nUnrels = 87;
unpred = [2,2,2,2,3,3,3,3,4,4,4,4,4,5,5,5,5,5,5,5,5,5,6,6,6,6,7,7,7,7,8,8,8,8,8,8,8,9,9,9,9,9,9,9,10,10,10,10,10,10,10,10,10,10,11,11,11,11,11,12,13,13,13,13,13,13,14,14,14,14,14,14,15,15,15,15,15,16,16,17,17,17,18,18,19,19,20];
unsucc = [3,4,7,8,4,5,8,11,6,7,11,12,18,6,7,8,9,10,11,12,15,18,7,8,11,18,8,9,11,18,9,11,12,13,16,17,18,10,11,12,13,14,16,18,11,12,13,14,15,16,17,18,19,21,12,13,14,15,16,18,15,16,17,18,20,21,15,16,17,18,20,21,16,17,18,19,20,18,19,18,19,21,20,21,20,21,21];

USEFUL_RES = [{},
	{1,2,3,4,5,6,7,8,9,10,11,12,13,14,15,16,17,18,19,20},
	{1,2,3,4,5,6,7,8,9,10,11,12,13,14,15,16,17,18,19,20},
	{1,2,3,4,5,6,7,8,9,10,11,12,13,14,15,16,17,18,19,20},
	{1,2,3,4,5,6,7,8,9,10,11,12,13,14,15,16,17,18,19,20},
	{1,2,3,4,5,6,7,8,9,10,11,12,13,14,15,16,17,18,19,20},
	{1,2,3,4,5,6,7,8,9,10,11,12,13,14,15,16,17,18,19,20},
	{1,2,3,4,5,6,7,8,9,10,11,12,13,14,15,16,17,18,19,20},
	{1,2,3,4,5,6,7,8,9,10,11,12,13,14,15,16,17,18,19,20},
	{1,2,3,4,5,6,7,8,9,10,11,12,13,14,15,16,17,18,19,20},
	{1,2,3,4,5,6,7,8,9,10,11,12,13,14,15,16,17,18,19,20},
	{1,2,3,4,5,6,7,8,9,10,11,12,13,14,15,16,17,18,19,20},
	{1,2,3,4,5,6,7,8,9,10,11,12,13,14,15,16,17,18,19,20},
	{1,2,3,4,5,6,7,8,9,10,11,12,13,14,15,16,17,18,19,20},
	{1,2,3,4,5,6,7,8,9,10,11,12,13,14,15,16,17,18,19,20},
	{1,2,3,4,5,6,7,8,9,10,11,12,13,14,15,16,17,18,19,20},
	{1,2,3,4,5,6,7,8,9,10,11,12,13,14,15,16,17,18,19,20},
	{1,2,3,4,5,6,7,8,9,10,11,12,13,14,15,16,17,18,19,20},
	{1,2,3,4,5,6,7,8,9,10,11,12,13,14,15,16,17,18,19,20},
	{1,2,3,4,5,6,7,8,9,10,11,12,13,14,15,16,17,18,19,20},
	{1,2,3,4,5,6,7,8,9,10,11,12,13,14,15,16,17,18,19,20},
	{}];

POTENTIAL_ACT = [{2,3,4,5,6,7,8,9,10,11,12,13,14,15,16,17,18,19,20,21},
	{2,3,4,5,6,7,8,9,10,11,12,13,14,15,16,17,18,19,20,21},
	{2,3,4,5,6,7,8,9,10,11,12,13,14,15,16,17,18,19,20,21},
	{2,3,4,5,6,7,8,9,10,11,12,13,14,15,16,17,18,19,20,21},
	{2,3,4,5,6,7,8,9,10,11,12,13,14,15,16,17,18,19,20,21},
	{2,3,4,5,6,7,8,9,10,11,12,13,14,15,16,17,18,19,20,21},
	{2,3,4,5,6,7,8,9,10,11,12,13,14,15,16,17,18,19,20,21},
	{2,3,4,5,6,7,8,9,10,11,12,13,14,15,16,17,18,19,20,21},
	{2,3,4,5,6,7,8,9,10,11,12,13,14,15,16,17,18,19,20,21},
	{2,3,4,5,6,7,8,9,10,11,12,13,14,15,16,17,18,19,20,21},
	{2,3,4,5,6,7,8,9,10,11,12,13,14,15,16,17,18,19,20,21},
	{2,3,4,5,6,7,8,9,10,11,12,13,14,15,16,17,18,19,20,21},
	{2,3,4,5,6,7,8,9,10,11,12,13,14,15,16,17,18,19,20,21},
	{2,3,4,5,6,7,8,9,10,11,12,13,14,15,16,17,18,19,20,21},
	{2,3,4,5,6,7,8,9,10,11,12,13,14,15,16,17,18,19,20,21},
	{2,3,4,5,6,7,8,9,10,11,12,13,14,15,16,17,18,19,20,21},
	{2,3,4,5,6,7,8,9,10,11,12,13,14,15,16,17,18,19,20,21},
	{2,3,4,5,6,7,8,9,10,11,12,13,14,15,16,17,18,19,20,21},
	{2,3,4,5,6,7,8,9,10,11,12,13,14,15,16,17,18,19,20,21},
	{2,3,4,5,6,7,8,9,10,11,12,13,14,15,16,17,18,19,20,21}];
